lp_solutions/grafo1001.12.sol
# Objective value = 3
c_n2_e2_e3_e5_ 1
c_n9_e6_e7_e8_ 1
c_n9_e6_e7_e11_ 0
c_n9_e7_e8_e11_ 1
c_n9_e6_e8_e11_ 0
x_e2e3 1
x_e3e5 1
x_e2e5 1
x_e3e7 0
x_e2e7 0
x_e3e6 0
x_e2e6 0
x_e3e8 0
x_e2e8 0
x_e3e11 0
x_e2e11 0
x_e5e7 0
x_e5e6 0
x_e5e8 0
x_e5e11 0
x_e7e6 0
x_e7e8 1
x_e7e11 1
x_e6e8 1
x_e6e11 1
x_e8e11 1
y_n0n1 0
y_n1n2 0
y_n0n2 0
y_n1n3 0
y_n0n3 0
y_n1n4 0
y_n0n4 0
y_n1n5 0
y_n0n5 0
y_n1n6 0
y_n0n6 0
y_n1n7 0
y_n0n7 0
y_n1n8 0
y_n0n8 0
y_n1n9 0
y_n0n9 0
y_n1n10 0
y_n0n10 0
y_n1n11 0
y_n0n11 0
y_n2n3 0
y_n2n4 0
y_n2n5 0
y_n2n6 0
y_n2n7 0
y_n2n8 0
y_n2n9 0
y_n2n10 0
y_n2n11 0
y_n3n4 1
y_n3n5 1
y_n3n6 0
y_n3n7 1
y_n3n8 1
y_n3n9 0
y_n3n10 0
y_n3n11 1
y_n4n5 1
y_n4n6 0
y_n4n7 1
y_n4n8 1
y_n4n9 0
y_n4n10 0
y_n4n11 1
y_n5n6 0
y_n5n7 0
y_n5n8 0
y_n5n9 0
y_n5n10 0
y_n5n11 0
y_n6n7 1
y_n6n8 1
y_n6n9 1
y_n6n10 1
y_n6n11 1
y_n7n8 1
y_n7n9 0
y_n7n10 0
y_n7n11 1
y_n8n9 0
y_n8n10 0
y_n8n11 0
y_n9n10 0
y_n9n11 1
y_n10n11 1
pos_e2 4
pos_e3 5
pos_e5 6
pos_e7 1
pos_e6 0
pos_e8 2
pos_e11 3
z_e2e3 1
z_e2e5 0
z_e3e2 0
z_e3e5 1
z_e5e2 0
z_e5e3 0
z_e7e6 0
z_e7e8 1
z_e7e11 0
z_e6e7 1
z_e6e8 0
z_e6e11 0
z_e8e7 0
z_e8e6 0
z_e8e11 1
z_e11e7 0
z_e11e6 0
z_e11e8 0
c_n9_e7_e6_e11_ 1
