lp_solutions/grafo1001.12.log

Gurobi 11.0.1 (mac64[x86], gurobi_cl) logging started Tue Oct 29 15:20:42 2024

Set parameter Username
Set parameter TimeLimit to value 10
Set parameter LogFile to value "./lp_solutions/grafo1001.12.log"
Using license file /Users/sara/gurobi.lic
Academic license - for non-commercial use only - expires 2025-05-12

Gurobi Optimizer version 11.0.1 build v11.0.1rc0 (mac64[x86] - Darwin 21.6.0 21G651)
Copyright (c) 2024, Gurobi Optimization, LLC

Read LP format model from file ./lp_problems/grafo1001.12.lp
Reading time = 0.00 seconds
: 619 rows, 118 columns, 1801 nonzeros

CPU model: Intel(R) Core(TM) i5-1038NG7 CPU @ 2.00GHz
Thread count: 4 physical cores, 8 logical processors, using up to 8 threads

Optimize a model with 619 rows, 118 columns and 1801 nonzeros
Model fingerprint: 0x630141ed
Variable types: 8 continuous, 110 integer (110 binary)
Coefficient statistics:
  Matrix range     [1e+00, 5e+01]
  Objective range  [1e+00, 1e+00]
  Bounds range     [1e+00, 1e+00]
  RHS range        [1e+00, 5e+01]
Found heuristic solution: objective -0.0000000
Presolve removed 66 rows and 16 columns
Presolve time: 0.01s
Presolved: 553 rows, 102 columns, 1675 nonzeros
Variable types: 0 continuous, 102 integer (95 binary)

Root relaxation: objective 3.666667e+00, 54 iterations, 0.00 seconds (0.00 work units)

    Nodes    |    Current Node    |     Objective Bounds      |     Work
 Expl Unexpl |  Obj  Depth IntInf | Incumbent    BestBd   Gap | It/Node Time

     0     0    3.66667    0    5   -0.00000    3.66667      -     -    0s
H    0     0                       3.0000000    3.66667  22.2%     -    0s
     0     0    3.66667    0    5    3.00000    3.66667  22.2%     -    0s

Explored 1 nodes (92 simplex iterations) in 0.03 seconds (0.01 work units)
Thread count was 8 (of 8 available processors)

Solution count 2: 3 -0 

Optimal solution found (tolerance 1.00e-04)
Best objective 3.000000000000e+00, best bound 3.000000000000e+00, gap 0.0000%

Wrote result file './lp_solutions/grafo1001.12.sol'

